<number of tasks>
50

<cycle time>
1000

<order strength>
0.596


<task times>
1 97
2 134
3 115
4 27
5 174
6 239
7 390
8 187
9 356
10 513
11 305
12 62
13 310
14 527
15 171
16 664
17 538
18 281
19 480
20 28
21 522
22 209
23 559
24 384
25 91
26 303
27 60
28 89
29 482
30 182
31 175
32 488
33 556
34 384
35 260
36 426
37 73
38 128
39 64
40 21
41 58
42 384
43 200
44 105
45 66
46 454
47 358
48 278
49 441
50 457

<precedence relations>
1,25
2,8
2,9
2,16
3,6
3,9
4,6
5,7
5,10
6,24
7,13
8,15
8,18
8,20
8,21
9,11
9,12
9,18
10,11
10,12
11,14
11,21
12,14
12,15
12,17
13,16
13,18
14,26
14,29
15,22
15,25
16,19
16,20
16,21
16,22
17,19
17,20
17,21
17,34
18,19
19,23
19,24
20,23
21,25
21,38
21,42
22,23
22,26
22,27
23,29
23,32
24,35
24,41
25,28
25,36
26,31
26,36
26,46
27,30
27,33
27,39
27,41
28,49
29,35
29,36
31,47
32,39
32,40
32,49
33,34
34,40
35,37
35,38
35,39
35,40
35,42
35,43
36,37
36,41
36,43
37,45
37,47
38,46
39,47
39,48
41,44
41,45
43,50
44,49
44,50

<end>
